; benchmark generated from python API
(set-info :status unknown)
(declare-fun DISJ_W_S2_R_S1 () Bool)
(declare-fun W_S2_V3 () Bool)
(declare-fun W_S2_V5 () Bool)
(declare-fun W_S2_V2 () Bool)
(declare-fun R_S2_V1 () Bool)
(declare-fun R_S2_V5 () Bool)
(declare-fun R_S2_V3 () Bool)
(declare-fun R_S2_V4 () Bool)
(declare-fun W_S1_V4 () Bool)
(declare-fun W_S1_V5 () Bool)
(declare-fun DISJ_W_S1_W_S2 () Bool)
(declare-fun W_S2_V1 () Bool)
(declare-fun DISJ_W_S1_R_S2 () Bool)
(declare-fun DISJ_W_S2_R_S2 () Bool)
(declare-fun R_E1_V4 () Bool)
(declare-fun R_E1_V5 () Bool)
(declare-fun R_S2_V2 () Bool)
(declare-fun R_S1_V4 () Bool)
(declare-fun R_S1_V5 () Bool)
(declare-fun R_S1_V2 () Bool)
(declare-fun R_S1_V3 () Bool)
(declare-fun R_S1_V1 () Bool)
(declare-fun R_E1_V2 () Bool)
(declare-fun DISJ_W_S2_R_E1 () Bool)
(declare-fun R_E1_V3 () Bool)
(declare-fun DISJ_W_S1_R_S1 () Bool)
(declare-fun W_S2_V4 () Bool)
(declare-fun W_S1_V3 () Bool)
(declare-fun W_S1_V2 () Bool)
(declare-fun W_S1_V1 () Bool)
(declare-fun R_E1_V1 () Bool)
(declare-fun DISJ_W_S1_R_E1 () Bool)
(assert
 (let (($x3198 (not W_S2_V3)))
 (let (($x48 (not W_S2_V5)))
 (let (($x4958 (not W_S2_V2)))
 (let (($x3413 (not R_S2_V1)))
 (let (($x3486 (not (and $x3413 $x4958 $x48 $x3198 DISJ_W_S2_R_S1))))
 (let (($x4678 (not (and $x3413 (not R_S2_V3) (not R_S2_V5) $x4958 DISJ_W_S2_R_S1))))
 (let (($x2960 (not (and $x3413 (not R_S2_V4) $x4958 $x48 DISJ_W_S2_R_S1))))
 (let (($x1016 (not (and $x3413 (not R_S2_V5) (not R_S2_V4) $x4958 DISJ_W_S2_R_S1))))
 (let (($x517 (not (and $x3413 (not R_S2_V4) $x4958 $x3198 DISJ_W_S2_R_S1))))
 (let (($x2356 (not (and $x3413 (not R_S2_V3) (not R_S2_V4) $x4958 DISJ_W_S2_R_S1))))
 (let (($x5043 (not (and (not R_S2_V5) (not W_S1_V4) $x3198 DISJ_W_S2_R_S1))))
 (let (($x2406 (not (and (not R_S2_V5) (not R_S2_V4) $x3198 DISJ_W_S2_R_S1))))
 (let (($x1305 (not (and (not R_S2_V4) (not W_S1_V5) $x3198 DISJ_W_S2_R_S1))))
 (let (($x3579 (not (and (not R_S2_V4) $x48 $x3198 DISJ_W_S2_R_S1))))
 (let (($x991 (not (and DISJ_W_S1_W_S2 DISJ_W_S2_R_S1))))
 (let (($x2022 (not (and (not R_S2_V3) (not W_S1_V4) $x48 DISJ_W_S2_R_S1))))
 (let (($x5109 (not W_S2_V1)))
 (let (($x3646 (and $x5109 $x4958)))
 (let (($x5209 (not $x3646)))
 (let (($x4289 (not (and (not R_S2_V3) (not R_S2_V4) $x48 DISJ_W_S2_R_S1))))
 (let (($x4103 (not (and DISJ_W_S1_R_S2 DISJ_W_S2_R_S1))))
 (let (($x2701 (not (and $x4958 DISJ_W_S2_R_S2))))
 (let (($x3536 (not (and DISJ_W_S2_R_S1 DISJ_W_S2_R_S2))))
 (let (($x1401 (not (and W_S1_V4 R_E1_V4))))
 (let (($x585 (not (and W_S1_V5 R_E1_V5))))
 (let (($x2233 (forall ((V3_0 Int) )(forall ((V2_0 Int) )(forall ((V5_0 Int) )(forall ((V4_0 Int) )(forall ((MW_S1_V1 Bool) )(forall ((MW_S1_V3 Bool) )(forall ((MW_S1_V2 Bool) )(forall ((MW_S1_V5 Bool) )(forall ((MW_S1_V4 Bool) )(forall ((MW_S2_V1 Bool) )(forall ((MW_S2_V3 Bool) )(forall ((MW_S2_V2 Bool) )(forall ((MW_S2_V5 Bool) )(forall ((MW_S2_V4 Bool) )(forall ((S1_V1_!2447 Int) )(forall ((S1_V1_!2457 Int) )(forall ((S1_V1_!2468 Int) )(forall ((S2_V5_!2455 Int) )(forall ((S2_V5_!2465 Int) )(forall ((S2_V5_!2477 Int) )(forall ((S2_V5_!2482 Int) )(forall ((S1_V3_!2448 Int) )(forall ((S1_V3_!2458 Int) )(forall ((S1_V3_!2469 Int) )(forall ((S1_V2_!2449 Int) )(forall ((S1_V2_!2459 Int) )(forall ((S1_V2_!2470 Int) )(forall ((E1_!2446 Int) )(forall ((E1_!2467 Int) )(forall ((E1_!2473 Int) )(forall ((S2_V4_!2456 Int) )(forall ((S2_V4_!2466 Int) )(forall ((S2_V4_!2478 Int) )(forall ((S2_V4_!2483 Int) )(forall ((S1_V5_!2450 Int) )(forall ((S1_V5_!2460 Int) )(forall ((S1_V5_!2471 Int) )(forall ((S2_V1_!2452 Int) )(forall ((S2_V1_!2462 Int) )(forall ((S2_V1_!2474 Int) )(forall ((S2_V1_!2479 Int) )(forall ((S1_V4_!2451 Int) )(forall ((S1_V4_!2461 Int) )(forall ((S1_V4_!2472 Int) )(forall ((S2_V2_!2454 Int) )(forall ((S2_V2_!2464 Int) )(forall ((S2_V2_!2476 Int) )(forall ((S2_V2_!2481 Int) )(forall ((S2_V3_!2453 Int) )(forall ((S2_V3_!2463 Int) )(forall ((S2_V3_!2475 Int) )(forall ((S2_V3_!2480 Int) )(let (($x4546 (= (ite MW_S2_V4 S2_V4_!2466 (ite MW_S1_V4 S1_V4_!2461 (ite MW_S2_V4 S2_V4_!2456 (ite MW_S1_V4 S1_V4_!2451 V4_0)))) (ite MW_S2_V4 S2_V4_!2483 (ite MW_S1_V4 S1_V4_!2472 V4_0)))))
 (let (($x66 (= (ite MW_S2_V5 S2_V5_!2465 (ite MW_S1_V5 S1_V5_!2460 (ite MW_S2_V5 S2_V5_!2455 (ite MW_S1_V5 S1_V5_!2450 V5_0)))) (ite MW_S2_V5 S2_V5_!2482 (ite MW_S1_V5 S1_V5_!2471 V5_0)))))
 (let ((?x3709 (ite MW_S1_V2 S1_V2_!2470 V2_0)))
 (let ((?x5107 (ite MW_S2_V2 S2_V2_!2481 ?x3709)))
 (let ((?x3651 (ite MW_S1_V2 S1_V2_!2449 V2_0)))
 (let ((?x5592 (ite MW_S2_V2 S2_V2_!2454 ?x3651)))
 (let ((?x1601 (ite MW_S1_V2 S1_V2_!2459 ?x5592)))
 (let ((?x4959 (ite MW_S2_V2 S2_V2_!2464 ?x1601)))
 (let (($x4220 (= (ite MW_S2_V3 S2_V3_!2463 (ite MW_S1_V3 S1_V3_!2458 (ite MW_S2_V3 S2_V3_!2453 (ite MW_S1_V3 S1_V3_!2448 V3_0)))) (ite MW_S2_V3 S2_V3_!2480 (ite MW_S1_V3 S1_V3_!2469 V3_0)))))
 (let ((?x1663 (ite MW_S2_V1 S2_V1_!2474 E1_!2473)))
 (let ((?x2384 (+ 1 ?x1663)))
 (let ((?x2080 (ite MW_S2_V1 S2_V1_!2479 ?x2384)))
 (let ((?x733 (ite MW_S1_V1 S1_V1_!2447 E1_!2446)))
 (let ((?x2060 (ite MW_S2_V1 S2_V1_!2452 ?x733)))
 (let ((?x5367 (+ 1 ?x2060)))
 (let ((?x602 (ite MW_S1_V1 S1_V1_!2457 ?x5367)))
 (let ((?x6010 (ite MW_S2_V1 S2_V1_!2462 ?x602)))
 (let (($x414 (and (not (<= V2_0 E1_!2446)) (not (<= ?x5592 ?x5367)) (>= ?x6010 (+ (- 1) ?x4959)) (not (<= V2_0 E1_!2467)) (>= (ite MW_S1_V1 S1_V1_!2468 E1_!2467) (+ (- 1) ?x3709)) (not (<= ?x3709 E1_!2473)) (not (<= (ite MW_S2_V2 S2_V2_!2476 ?x3709) ?x2384)) (>= ?x2080 (+ (- 1) ?x5107)))))
 (let (($x778 (= S2_V3_!2475 S2_V3_!2480)))
 (let (($x1927 (not R_S2_V4)))
 (let (($x3220 (or $x1927 (= (ite MW_S1_V4 S1_V4_!2472 V4_0) (ite MW_S2_V4 S2_V4_!2478 (ite MW_S1_V4 S1_V4_!2472 V4_0))))))
 (let (($x5998 (not R_S2_V5)))
 (let (($x3919 (or $x5998 (= (ite MW_S1_V5 S1_V5_!2471 V5_0) (ite MW_S2_V5 S2_V5_!2477 (ite MW_S1_V5 S1_V5_!2471 V5_0))))))
 (let (($x4412 (not R_S2_V3)))
 (let (($x5328 (or $x4412 (= (ite MW_S1_V3 S1_V3_!2469 V3_0) (ite MW_S2_V3 S2_V3_!2475 (ite MW_S1_V3 S1_V3_!2469 V3_0))))))
 (let (($x343 (and (or (not R_S2_V1) (= E1_!2473 ?x2384)) $x5328 (or (not R_S2_V2) (= ?x3709 (ite MW_S2_V2 S2_V2_!2476 ?x3709))) $x3919 $x3220)))
 (let (($x2944 (not $x343)))
 (let (($x723 (= S2_V3_!2475 S2_V3_!2463)))
 (let ((?x5063 (ite MW_S1_V4 S1_V4_!2451 V4_0)))
 (let ((?x4838 (ite MW_S2_V4 S2_V4_!2456 ?x5063)))
 (let ((?x762 (ite MW_S1_V4 S1_V4_!2461 ?x4838)))
 (let ((?x1872 (ite MW_S1_V4 S1_V4_!2472 V4_0)))
 (let ((?x1949 (ite MW_S1_V5 S1_V5_!2450 V5_0)))
 (let ((?x4162 (ite MW_S2_V5 S2_V5_!2455 ?x1949)))
 (let ((?x1736 (ite MW_S1_V5 S1_V5_!2460 ?x4162)))
 (let ((?x958 (ite MW_S1_V5 S1_V5_!2471 V5_0)))
 (let ((?x5676 (ite MW_S1_V3 S1_V3_!2448 V3_0)))
 (let ((?x3570 (ite MW_S2_V3 S2_V3_!2453 ?x5676)))
 (let ((?x536 (ite MW_S1_V3 S1_V3_!2458 ?x3570)))
 (let ((?x328 (ite MW_S1_V3 S1_V3_!2469 V3_0)))
 (let (($x541 (and (or (not R_S2_V1) (= E1_!2473 ?x602)) (or $x4412 (= ?x328 ?x536)) (or (not R_S2_V2) (= ?x3709 ?x1601)) (or $x5998 (= ?x958 ?x1736)) (or $x1927 (= ?x1872 ?x762)))))
 (let (($x1830 (not $x541)))
 (let (($x1787 (= S2_V3_!2475 S2_V3_!2453)))
 (let (($x3428 (and (or (not R_S2_V1) (= E1_!2473 ?x733)) (or $x4412 (= ?x328 ?x5676)) (or (not R_S2_V2) (= ?x3709 ?x3651)) (or $x5998 (= ?x958 ?x1949)) (or $x1927 (= ?x1872 ?x5063)))))
 (let (($x3610 (not $x3428)))
 (let (($x3466 (= S2_V3_!2463 S2_V3_!2480)))
 (let (($x1799 (and (or (not R_S2_V1) (= ?x602 ?x2384)) (or $x4412 (= ?x536 (ite MW_S2_V3 S2_V3_!2475 ?x328))) (or (not R_S2_V2) (= ?x1601 (ite MW_S2_V2 S2_V2_!2476 ?x3709))) (or $x5998 (= ?x1736 (ite MW_S2_V5 S2_V5_!2477 ?x958))) (or $x1927 (= ?x762 (ite MW_S2_V4 S2_V4_!2478 ?x1872))))))
 (let (($x881 (not $x1799)))
 (let (($x5719 (= S2_V3_!2463 S2_V3_!2453)))
 (let (($x2975 (and (or (not R_S2_V1) (= ?x602 ?x733)) (or $x4412 (= ?x536 ?x5676)) (or (not R_S2_V2) (= ?x1601 ?x3651)) (or $x5998 (= ?x1736 ?x1949)) (or $x1927 (= ?x762 ?x5063)))))
 (let (($x5960 (not $x2975)))
 (let (($x5900 (= S2_V3_!2453 S2_V3_!2480)))
 (let (($x4900 (and (or (not R_S2_V1) (= ?x733 ?x2384)) (or $x4412 (= ?x5676 (ite MW_S2_V3 S2_V3_!2475 ?x328))) (or (not R_S2_V2) (= ?x3651 (ite MW_S2_V2 S2_V2_!2476 ?x3709))) (or $x5998 (= ?x1949 (ite MW_S2_V5 S2_V5_!2477 ?x958))) (or $x1927 (= ?x5063 (ite MW_S2_V4 S2_V4_!2478 ?x1872))))))
 (let (($x1853 (not $x4900)))
 (let (($x5504 (= S2_V2_!2481 S2_V2_!2476)))
 (let (($x1436 (and (or (not R_S2_V1) (= ?x1663 (+ (- 1) E1_!2473))) (or $x4412 (= (ite MW_S2_V3 S2_V3_!2475 ?x328) ?x328)) (or (not R_S2_V2) (= (ite MW_S2_V2 S2_V2_!2476 ?x3709) ?x3709)) (or $x5998 (= (ite MW_S2_V5 S2_V5_!2477 ?x958) ?x958)) (or $x1927 (= (ite MW_S2_V4 S2_V4_!2478 ?x1872) ?x1872)))))
 (let (($x3334 (not $x1436)))
 (let (($x5251 (= S2_V2_!2481 S2_V2_!2464)))
 (let (($x160 (and (or (not R_S2_V1) (= ?x1663 (+ (- 1) ?x602))) (or $x4412 (= (ite MW_S2_V3 S2_V3_!2475 ?x328) ?x536)) (or (not R_S2_V2) (= (ite MW_S2_V2 S2_V2_!2476 ?x3709) ?x1601)) (or $x5998 (= (ite MW_S2_V5 S2_V5_!2477 ?x958) ?x1736)) (or $x1927 (= (ite MW_S2_V4 S2_V4_!2478 ?x1872) ?x762)))))
 (let (($x663 (= S2_V2_!2464 S2_V2_!2476)))
 (let (($x4604 (and (or (not R_S2_V1) (= ?x602 E1_!2473)) (or $x4412 (= ?x536 ?x328)) (or (not R_S2_V2) (= ?x1601 ?x3709)) (or $x5998 (= ?x1736 ?x958)) (or $x1927 (= ?x762 ?x1872)))))
 (let (($x2494 (not $x4604)))
 (let (($x2485 (= S2_V2_!2454 S2_V2_!2476)))
 (let (($x3743 (and (or (not R_S2_V1) (= ?x733 E1_!2473)) (or $x4412 (= ?x5676 ?x328)) (or (not R_S2_V2) (= ?x3651 ?x3709)) (or $x5998 (= ?x1949 ?x958)) (or $x1927 (= ?x5063 ?x1872)))))
 (let (($x4236 (not $x3743)))
 (let (($x5278 (= S2_V2_!2454 S2_V2_!2464)))
 (let (($x2636 (and (or (not R_S2_V1) (= ?x733 ?x602)) (or $x4412 (= ?x5676 ?x536)) (or (not R_S2_V2) (= ?x3651 ?x1601)) (or $x5998 (= ?x1949 ?x1736)) (or $x1927 (= ?x5063 ?x762)))))
 (let (($x5111 (not $x2636)))
 (let (($x4821 (= S1_V4_!2472 S1_V4_!2461)))
 (let (($x1657 (not R_S1_V4)))
 (let (($x1668 (or $x1657 (= V4_0 ?x4838))))
 (let (($x5463 (not R_S1_V5)))
 (let (($x1984 (or $x5463 (= V5_0 ?x4162))))
 (let (($x3224 (not R_S1_V2)))
 (let (($x2611 (or $x3224 (= V2_0 ?x5592))))
 (let (($x2234 (not R_S1_V3)))
 (let (($x4367 (or $x2234 (= V3_0 ?x3570))))
 (let (($x6021 (not (and (or (not R_S1_V1) (= E1_!2467 ?x5367)) $x4367 $x2611 $x1984 $x1668))))
 (let (($x380 (not (and (or (not R_S1_V1) (= E1_!2446 ?x5367)) $x4367 $x2611 $x1984 $x1668))))
 (let (($x2094 (and (or (not R_S2_V1) (= ?x1663 (+ (- 1) ?x733))) (or $x4412 (= (ite MW_S2_V3 S2_V3_!2475 ?x328) ?x5676)) (or (not R_S2_V2) (= (ite MW_S2_V2 S2_V2_!2476 ?x3709) ?x3651)) (or $x5998 (= (ite MW_S2_V5 S2_V5_!2477 ?x958) ?x1949)) (or $x1927 (= (ite MW_S2_V4 S2_V4_!2478 ?x1872) ?x5063)))))
 (let (($x1125 (and (or (not R_E1_V2) (= V2_0 ?x3709)) (or (not R_E1_V5) (= V5_0 ?x958)) (or (not R_E1_V4) (= V4_0 ?x1872)))))
 (let (($x787 (not $x1125)))
 (let (($x660 (= E1_!2467 E1_!2446)))
 (let (($x3506 (or $x1657 (= ?x4838 V4_0))))
 (let (($x2658 (or $x5463 (= ?x4162 V5_0))))
 (let (($x4722 (or $x3224 (= ?x5592 V2_0))))
 (let (($x1405 (or $x2234 (= ?x3570 V3_0))))
 (let (($x4755 (and (or (not R_S1_V1) (= ?x2060 (+ (- 1) E1_!2467))) $x1405 $x4722 $x2658 $x3506)))
 (let (($x4074 (not $x4755)))
 (let (($x1204 (= S1_V2_!2459 S1_V2_!2449)))
 (let (($x4098 (and (or (not R_S1_V1) (= ?x2060 (+ (- 1) E1_!2446))) $x1405 $x4722 $x2658 $x3506)))
 (let (($x1122 (not $x4098)))
 (let (($x1751 (and (or $x1122 (= S1_V1_!2457 S1_V1_!2447)) (or (not (or (not R_S1_V1) $x660)) (= S1_V1_!2468 S1_V1_!2447)) (or $x6021 (= S1_V1_!2468 S1_V1_!2457)) (or $x5111 (= S2_V5_!2455 S2_V5_!2465)) (or $x4236 (= S2_V5_!2455 S2_V5_!2477)) (or $x1853 (= S2_V5_!2455 S2_V5_!2482)) (or $x2494 (= S2_V5_!2465 S2_V5_!2477)) (or $x881 (= S2_V5_!2465 S2_V5_!2482)) (or $x3334 (= S2_V5_!2482 S2_V5_!2477)) (or $x1122 (= S1_V3_!2458 S1_V3_!2448)) (or $x4074 (= S1_V3_!2458 S1_V3_!2469)) (or (not (or (not R_S1_V1) $x660)) (= S1_V3_!2469 S1_V3_!2448)) (or $x1122 $x1204) (or $x4074 (= S1_V2_!2459 S1_V2_!2470)) (or (not (or (not R_S1_V1) $x660)) (= S1_V2_!2470 S1_V2_!2449)) (or $x787 (= E1_!2446 E1_!2473)) $x660 (or $x787 (= E1_!2467 E1_!2473)) (or $x5960 (= S2_V4_!2466 S2_V4_!2456)) (or $x2494 (= S2_V4_!2466 S2_V4_!2478)) (or $x881 (= S2_V4_!2466 S2_V4_!2483)) (or $x3610 (= S2_V4_!2478 S2_V4_!2456)) (or $x2944 (= S2_V4_!2478 S2_V4_!2483)) (or (not $x2094) (= S2_V4_!2483 S2_V4_!2456)) (or $x380 (= S1_V5_!2450 S1_V5_!2460)) (or (not (or (not R_S1_V1) $x660)) (= S1_V5_!2471 S1_V5_!2450)) (or $x6021 (= S1_V5_!2471 S1_V5_!2460)) (or $x1853 (= S2_V1_!2452 S2_V1_!2479)) (or $x5960 (= S2_V1_!2462 S2_V1_!2452)) (or $x881 (= S2_V1_!2462 S2_V1_!2479)) (or $x3610 (= S2_V1_!2474 S2_V1_!2452)) (or $x1830 (= S2_V1_!2474 S2_V1_!2462)) (or $x2944 (= S2_V1_!2474 S2_V1_!2479)) (or $x380 (= S1_V4_!2451 S1_V4_!2461)) (or (not (or (not R_S1_V1) (= E1_!2446 E1_!2467))) (= S1_V4_!2451 S1_V4_!2472)) (or $x6021 $x4821) (or $x5111 $x5278) (or $x4236 $x2485) (or $x1853 (= S2_V2_!2454 S2_V2_!2481)) (or $x2494 $x663) (or (not $x160) $x5251) (or $x3334 $x5504) (or $x1853 $x5900) (or $x5960 $x5719) (or $x881 $x3466) (or $x3610 $x1787) (or $x1830 $x723) (or $x2944 $x778) (not MW_S1_V1) (not MW_S1_V2) (or (not MW_S1_V5) W_S1_V5) (or (not MW_S1_V4) W_S1_V4) (or (not MW_S2_V1) W_S2_V1) (or (not MW_S2_V3) W_S2_V3) (or (not MW_S2_V2) W_S2_V2) (or (not MW_S2_V5) W_S2_V5))))
 (or (not $x1751) (not $x414) (and (= ?x6010 ?x2080) $x4220 (= ?x4959 ?x5107) $x66 $x4546))))))))))))))))))))))))))))))))))))))))))))))))))))))))))))))))))))))))))))))))))))))))))))))))
 )
 )
 )
 )
 )
 )
 )
 )
 )
 )
 )
 )
 )
 )
 )
 )
 )
 )
 )
 )
 )
 )
 )
 )
 )
 )
 )
 )
 )
 )
 )
 )
 )
 )
 )
 )
 )
 )
 )
 )
 )
 )
 )
 )
 )
 )
 )
 )
 )
 )
 )
 ))
 (let (($x2377 (not (or (and W_S2_V2 R_E1_V2) (and W_S2_V5 R_E1_V5) R_E1_V4))))
 (let (($x1557 (= DISJ_W_S2_R_E1 $x2377)))
 (let (($x5675 (and W_S2_V5 R_S2_V5)))
 (let (($x875 (and W_S2_V2 R_S2_V2)))
 (let (($x1771 (and W_S2_V3 R_S2_V3)))
 (let (($x2455 (and W_S2_V1 R_S2_V1)))
 (let (($x1786 (= DISJ_W_S2_R_S2 (not (or $x2455 $x1771 $x875 $x5675 R_S2_V4)))))
 (let (($x530 (and W_S2_V5 R_S1_V5)))
 (let (($x4109 (and W_S2_V2 R_S1_V2)))
 (let (($x4168 (and W_S2_V3 R_S1_V3)))
 (let (($x738 (and W_S2_V1 R_S1_V1)))
 (let (($x707 (= DISJ_W_S2_R_S1 (not (or $x738 $x4168 $x4109 $x530 R_S1_V4)))))
 (let (($x899 (= DISJ_W_S1_W_S2 (not (or W_S2_V3 (and W_S1_V5 W_S2_V5) W_S1_V4)))))
 (let (($x5762 (not R_E1_V3)))
 (let (($x2072 (not (or R_S2_V3 (and W_S1_V5 R_S2_V5) (and W_S1_V4 R_S2_V4)))))
 (let (($x2958 (= DISJ_W_S1_R_S2 $x2072)))
 (let (($x2581 (or R_S1_V3 (and W_S1_V5 R_S1_V5) (and W_S1_V4 R_S1_V4))))
 (let (($x3787 (= DISJ_W_S1_R_S1 (not $x2581))))
 (let (($x1813 (not R_S1_V1)))
 (let (($x3012 (and $x1813 DISJ_W_S1_R_S1)))
 (let (($x5128 (and $x4958 DISJ_W_S2_R_S1 DISJ_W_S1_R_S1)))
 (let (($x2242 (or $x5128 $x3646 $x3012)))
 (let (($x2695 (not W_S1_V2)))
 (let (($x2125 (not W_S1_V1)))
 (let (($x1271 (not R_E1_V1)))
 (let (($x2423 (and DISJ_W_S1_R_E1 $x1271 $x2125 $x2695 $x2242 W_S1_V3 W_S2_V4 $x3787 $x2958 $x5762 $x899 $x707 $x1786 $x1557 $x2233 $x585 $x1401)))
 (and $x2423 $x3536 $x2701 $x4103 $x4289 $x5209 $x2022 $x991 $x3579 $x1305 $x2406 $x5043 $x2356 $x517 $x1016 $x2960 $x4678 $x3486))))))))))))))))))))))))))))))))))))))))))))))))))))))
(check-sat)
